30
45
10
12
54
52
60
81
67
16
73
11
38
0 7
0 10
0 16
0 18
0 22
1 4
1 11
1 21
1 26
2 21
3 11
3 19
4 7
5 10
5 24
5 25
6 12
8 14
8 21
9 14
9 15
9 19
9 24
10 18
10 24
11 12
11 20
11 28
12 19
12 26
14 19
14 20
14 22
15 19
16 17
17 27
18 23
18 28
18 29
19 21
20 22
20 29
21 24
22 28
24 28
8 1 15
26 9 22
21 14 25
20 13 23
0 4 6
17 18 11
10 29 7
16 3 5
19 28 12
2 24 27
